num_bands = 46 
#exclude_bands = 1-8
num_wann=44
num_iter=3000
conv_tol=1.0E-7

#dis_win_max=9.5
dis_win_min=0.0
dis_num_iter=30000
dis_conv_tol=1.0E-9

postproc_setup=false

begin projections
f=0.183,0.25,0.007:dxy;dyz;dz2;dxz;dx2-y2
f=-0.183,-0.25,-0.007:dxy;dyz;dz2;dxz;dx2-y2
f=0.318,0.75,0.507:dxy;dyz;dz2;dxz;dx2-y2
f=-0.318,-0.75,-0.507:dxy;dyz;dz2;dxz;dx2-y2
f=0.589,0.25,0.104:px;py;pz
f=-0.589,-0.25,-0.104:px;py;pz
f=0.056,0.25,0.396:px;py;pz
f=-0.056,-0.25,-0.396:px;py;pz
f=0.097,0.75,0.149:px;py;pz
f=-0.097,-0.75,-0.149:px;py;pz
f=0.557,0.75,0.352:px;py;pz
f=-0.557,-0.75,-0.352:px;py;pz
end projections

guiding_centres=true
iprint=2
write_xyz=true

#hr_plot=true

begin unit_cell_cart
 6.3300000000  0.0000000000  0.0000000000
 0.0000000000  3.4690000000  0.0000000000
-0.8582050061  0.0000000000 13.8334046484
end unit_cell_cart 

begin atoms_frac
Mo  0.183000000  0.250000000  0.007000000
Mo -0.183000000 -0.250000000 -0.007000000
Mo  0.318000000  0.750000000  0.507000000
Mo -0.318000000 -0.750000000 -0.507000000
Te  0.589000000  0.250000000  0.104000000
Te -0.589000000 -0.250000000 -0.104000000
Te  0.056000000  0.250000000  0.396000000
Te -0.056000000 -0.250000000 -0.396000000
Te  0.097000000  0.750000000  0.149000000
Te -0.097000000 -0.750000000 -0.149000000
Te  0.557000000  0.750000000  0.352000000
Te -0.557000000 -0.750000000 -0.352000000
end atoms_frac

mp_grid = 10 20 5 

begin kpoints
    0.00000000000000    0.00000000000000    0.00000000000000           
    0.10000000000000    0.00000000000000    0.00000000000000           
    0.20000000000000    0.00000000000000    0.00000000000000           
    0.30000000000000    0.00000000000000    0.00000000000000           
    0.40000000000000    0.00000000000000    0.00000000000000           
    0.50000000000000    0.00000000000000    0.00000000000000           
   -0.40000000000000    0.00000000000000    0.00000000000000           
   -0.30000000000000    0.00000000000000    0.00000000000000           
   -0.20000000000000    0.00000000000000    0.00000000000000           
   -0.10000000000000    0.00000000000000    0.00000000000000           
    0.00000000000000    0.05000000000000    0.00000000000000           
    0.10000000000000    0.05000000000000    0.00000000000000           
    0.20000000000000    0.05000000000000    0.00000000000000           
    0.30000000000000    0.05000000000000    0.00000000000000           
    0.40000000000000    0.05000000000000    0.00000000000000           
    0.50000000000000    0.05000000000000    0.00000000000000           
   -0.40000000000000    0.05000000000000    0.00000000000000           
   -0.30000000000000    0.05000000000000    0.00000000000000           
   -0.20000000000000    0.05000000000000    0.00000000000000           
   -0.10000000000000    0.05000000000000    0.00000000000000           
    0.00000000000000    0.10000000000000    0.00000000000000           
    0.10000000000000    0.10000000000000    0.00000000000000           
    0.20000000000000    0.10000000000000    0.00000000000000           
    0.30000000000000    0.10000000000000    0.00000000000000           
    0.40000000000000    0.10000000000000    0.00000000000000           
    0.50000000000000    0.10000000000000    0.00000000000000           
   -0.40000000000000    0.10000000000000    0.00000000000000           
   -0.30000000000000    0.10000000000000    0.00000000000000           
   -0.20000000000000    0.10000000000000    0.00000000000000           
   -0.10000000000000    0.10000000000000    0.00000000000000           
    0.00000000000000    0.15000000000000    0.00000000000000           
    0.10000000000000    0.15000000000000    0.00000000000000           
    0.20000000000000    0.15000000000000    0.00000000000000           
    0.30000000000000    0.15000000000000    0.00000000000000           
    0.40000000000000    0.15000000000000    0.00000000000000           
    0.50000000000000    0.15000000000000    0.00000000000000           
   -0.40000000000000    0.15000000000000    0.00000000000000           
   -0.30000000000000    0.15000000000000    0.00000000000000           
   -0.20000000000000    0.15000000000000    0.00000000000000           
   -0.10000000000000    0.15000000000000    0.00000000000000           
    0.00000000000000    0.20000000000000    0.00000000000000           
    0.10000000000000    0.20000000000000    0.00000000000000           
    0.20000000000000    0.20000000000000    0.00000000000000           
    0.30000000000000    0.20000000000000    0.00000000000000           
    0.40000000000000    0.20000000000000    0.00000000000000           
    0.50000000000000    0.20000000000000    0.00000000000000           
   -0.40000000000000    0.20000000000000    0.00000000000000           
   -0.30000000000000    0.20000000000000    0.00000000000000           
   -0.20000000000000    0.20000000000000    0.00000000000000           
   -0.10000000000000    0.20000000000000    0.00000000000000           
    0.00000000000000    0.25000000000000    0.00000000000000           
    0.10000000000000    0.25000000000000    0.00000000000000           
    0.20000000000000    0.25000000000000    0.00000000000000           
    0.30000000000000    0.25000000000000    0.00000000000000           
    0.40000000000000    0.25000000000000    0.00000000000000           
    0.50000000000000    0.25000000000000    0.00000000000000           
   -0.40000000000000    0.25000000000000    0.00000000000000           
   -0.30000000000000    0.25000000000000    0.00000000000000           
   -0.20000000000000    0.25000000000000    0.00000000000000           
   -0.10000000000000    0.25000000000000    0.00000000000000           
    0.00000000000000    0.30000000000000    0.00000000000000           
    0.10000000000000    0.30000000000000    0.00000000000000           
    0.20000000000000    0.30000000000000    0.00000000000000           
    0.30000000000000    0.30000000000000    0.00000000000000           
    0.40000000000000    0.30000000000000    0.00000000000000           
    0.50000000000000    0.30000000000000    0.00000000000000           
   -0.40000000000000    0.30000000000000    0.00000000000000           
   -0.30000000000000    0.30000000000000    0.00000000000000           
   -0.20000000000000    0.30000000000000    0.00000000000000           
   -0.10000000000000    0.30000000000000    0.00000000000000           
    0.00000000000000    0.35000000000000    0.00000000000000           
    0.10000000000000    0.35000000000000    0.00000000000000           
    0.20000000000000    0.35000000000000    0.00000000000000           
    0.30000000000000    0.35000000000000    0.00000000000000           
    0.40000000000000    0.35000000000000    0.00000000000000           
    0.50000000000000    0.35000000000000    0.00000000000000           
   -0.40000000000000    0.35000000000000    0.00000000000000           
   -0.30000000000000    0.35000000000000    0.00000000000000           
   -0.20000000000000    0.35000000000000    0.00000000000000           
   -0.10000000000000    0.35000000000000    0.00000000000000           
    0.00000000000000    0.40000000000000    0.00000000000000           
    0.10000000000000    0.40000000000000    0.00000000000000           
    0.20000000000000    0.40000000000000    0.00000000000000           
    0.30000000000000    0.40000000000000    0.00000000000000           
    0.40000000000000    0.40000000000000    0.00000000000000           
    0.50000000000000    0.40000000000000    0.00000000000000           
   -0.40000000000000    0.40000000000000    0.00000000000000           
   -0.30000000000000    0.40000000000000    0.00000000000000           
   -0.20000000000000    0.40000000000000    0.00000000000000           
   -0.10000000000000    0.40000000000000    0.00000000000000           
    0.00000000000000    0.45000000000000    0.00000000000000           
    0.10000000000000    0.45000000000000    0.00000000000000           
    0.20000000000000    0.45000000000000    0.00000000000000           
    0.30000000000000    0.45000000000000    0.00000000000000           
    0.40000000000000    0.45000000000000    0.00000000000000           
    0.50000000000000    0.45000000000000    0.00000000000000           
   -0.40000000000000    0.45000000000000    0.00000000000000           
   -0.30000000000000    0.45000000000000    0.00000000000000           
   -0.20000000000000    0.45000000000000    0.00000000000000           
   -0.10000000000000    0.45000000000000    0.00000000000000           
    0.00000000000000    0.50000000000000    0.00000000000000           
    0.10000000000000    0.50000000000000    0.00000000000000           
    0.20000000000000    0.50000000000000    0.00000000000000           
    0.30000000000000    0.50000000000000    0.00000000000000           
    0.40000000000000    0.50000000000000    0.00000000000000           
    0.50000000000000    0.50000000000000    0.00000000000000           
   -0.40000000000000    0.50000000000000    0.00000000000000           
   -0.30000000000000    0.50000000000000    0.00000000000000           
   -0.20000000000000    0.50000000000000    0.00000000000000           
   -0.10000000000000    0.50000000000000    0.00000000000000           
    0.00000000000000   -0.45000000000000    0.00000000000000           
    0.10000000000000   -0.45000000000000    0.00000000000000           
    0.20000000000000   -0.45000000000000    0.00000000000000           
    0.30000000000000   -0.45000000000000    0.00000000000000           
    0.40000000000000   -0.45000000000000    0.00000000000000           
    0.50000000000000   -0.45000000000000    0.00000000000000           
   -0.40000000000000   -0.45000000000000    0.00000000000000           
   -0.30000000000000   -0.45000000000000    0.00000000000000           
   -0.20000000000000   -0.45000000000000    0.00000000000000           
   -0.10000000000000   -0.45000000000000    0.00000000000000           
    0.00000000000000   -0.40000000000000    0.00000000000000           
    0.10000000000000   -0.40000000000000    0.00000000000000           
    0.20000000000000   -0.40000000000000    0.00000000000000           
    0.30000000000000   -0.40000000000000    0.00000000000000           
    0.40000000000000   -0.40000000000000    0.00000000000000           
    0.50000000000000   -0.40000000000000    0.00000000000000           
   -0.40000000000000   -0.40000000000000    0.00000000000000           
   -0.30000000000000   -0.40000000000000    0.00000000000000           
   -0.20000000000000   -0.40000000000000    0.00000000000000           
   -0.10000000000000   -0.40000000000000    0.00000000000000           
    0.00000000000000   -0.35000000000000    0.00000000000000           
    0.10000000000000   -0.35000000000000    0.00000000000000           
    0.20000000000000   -0.35000000000000    0.00000000000000           
    0.30000000000000   -0.35000000000000    0.00000000000000           
    0.40000000000000   -0.35000000000000    0.00000000000000           
    0.50000000000000   -0.35000000000000    0.00000000000000           
   -0.40000000000000   -0.35000000000000    0.00000000000000           
   -0.30000000000000   -0.35000000000000    0.00000000000000           
   -0.20000000000000   -0.35000000000000    0.00000000000000           
   -0.10000000000000   -0.35000000000000    0.00000000000000           
    0.00000000000000   -0.30000000000000    0.00000000000000           
    0.10000000000000   -0.30000000000000    0.00000000000000           
    0.20000000000000   -0.30000000000000    0.00000000000000           
    0.30000000000000   -0.30000000000000    0.00000000000000           
    0.40000000000000   -0.30000000000000    0.00000000000000           
    0.50000000000000   -0.30000000000000    0.00000000000000           
   -0.40000000000000   -0.30000000000000    0.00000000000000           
   -0.30000000000000   -0.30000000000000    0.00000000000000           
   -0.20000000000000   -0.30000000000000    0.00000000000000           
   -0.10000000000000   -0.30000000000000    0.00000000000000           
    0.00000000000000   -0.25000000000000    0.00000000000000           
    0.10000000000000   -0.25000000000000    0.00000000000000           
    0.20000000000000   -0.25000000000000    0.00000000000000           
    0.30000000000000   -0.25000000000000    0.00000000000000           
    0.40000000000000   -0.25000000000000    0.00000000000000           
    0.50000000000000   -0.25000000000000    0.00000000000000           
   -0.40000000000000   -0.25000000000000    0.00000000000000           
   -0.30000000000000   -0.25000000000000    0.00000000000000           
   -0.20000000000000   -0.25000000000000    0.00000000000000           
   -0.10000000000000   -0.25000000000000    0.00000000000000           
    0.00000000000000   -0.20000000000000    0.00000000000000           
    0.10000000000000   -0.20000000000000    0.00000000000000           
    0.20000000000000   -0.20000000000000    0.00000000000000           
    0.30000000000000   -0.20000000000000    0.00000000000000           
    0.40000000000000   -0.20000000000000    0.00000000000000           
    0.50000000000000   -0.20000000000000    0.00000000000000           
   -0.40000000000000   -0.20000000000000    0.00000000000000           
   -0.30000000000000   -0.20000000000000    0.00000000000000           
   -0.20000000000000   -0.20000000000000    0.00000000000000           
   -0.10000000000000   -0.20000000000000    0.00000000000000           
    0.00000000000000   -0.15000000000000    0.00000000000000           
    0.10000000000000   -0.15000000000000    0.00000000000000           
    0.20000000000000   -0.15000000000000    0.00000000000000           
    0.30000000000000   -0.15000000000000    0.00000000000000           
    0.40000000000000   -0.15000000000000    0.00000000000000           
    0.50000000000000   -0.15000000000000    0.00000000000000           
   -0.40000000000000   -0.15000000000000    0.00000000000000           
   -0.30000000000000   -0.15000000000000    0.00000000000000           
   -0.20000000000000   -0.15000000000000    0.00000000000000           
   -0.10000000000000   -0.15000000000000    0.00000000000000           
    0.00000000000000   -0.10000000000000    0.00000000000000           
    0.10000000000000   -0.10000000000000    0.00000000000000           
    0.20000000000000   -0.10000000000000    0.00000000000000           
    0.30000000000000   -0.10000000000000    0.00000000000000           
    0.40000000000000   -0.10000000000000    0.00000000000000           
    0.50000000000000   -0.10000000000000    0.00000000000000           
   -0.40000000000000   -0.10000000000000    0.00000000000000           
   -0.30000000000000   -0.10000000000000    0.00000000000000           
   -0.20000000000000   -0.10000000000000    0.00000000000000           
   -0.10000000000000   -0.10000000000000    0.00000000000000           
    0.00000000000000   -0.05000000000000    0.00000000000000           
    0.10000000000000   -0.05000000000000    0.00000000000000           
    0.20000000000000   -0.05000000000000    0.00000000000000           
    0.30000000000000   -0.05000000000000    0.00000000000000           
    0.40000000000000   -0.05000000000000    0.00000000000000           
    0.50000000000000   -0.05000000000000    0.00000000000000           
   -0.40000000000000   -0.05000000000000    0.00000000000000           
   -0.30000000000000   -0.05000000000000    0.00000000000000           
   -0.20000000000000   -0.05000000000000    0.00000000000000           
   -0.10000000000000   -0.05000000000000    0.00000000000000           
    0.00000000000000    0.00000000000000    0.20000000000000           
    0.10000000000000    0.00000000000000    0.20000000000000           
    0.20000000000000    0.00000000000000    0.20000000000000           
    0.30000000000000    0.00000000000000    0.20000000000000           
    0.40000000000000    0.00000000000000    0.20000000000000           
    0.50000000000000    0.00000000000000    0.20000000000000           
   -0.40000000000000    0.00000000000000    0.20000000000000           
   -0.30000000000000    0.00000000000000    0.20000000000000           
   -0.20000000000000    0.00000000000000    0.20000000000000           
   -0.10000000000000    0.00000000000000    0.20000000000000           
    0.00000000000000    0.05000000000000    0.20000000000000           
    0.10000000000000    0.05000000000000    0.20000000000000           
    0.20000000000000    0.05000000000000    0.20000000000000           
    0.30000000000000    0.05000000000000    0.20000000000000           
    0.40000000000000    0.05000000000000    0.20000000000000           
    0.50000000000000    0.05000000000000    0.20000000000000           
   -0.40000000000000    0.05000000000000    0.20000000000000           
   -0.30000000000000    0.05000000000000    0.20000000000000           
   -0.20000000000000    0.05000000000000    0.20000000000000           
   -0.10000000000000    0.05000000000000    0.20000000000000           
    0.00000000000000    0.10000000000000    0.20000000000000           
    0.10000000000000    0.10000000000000    0.20000000000000           
    0.20000000000000    0.10000000000000    0.20000000000000           
    0.30000000000000    0.10000000000000    0.20000000000000           
    0.40000000000000    0.10000000000000    0.20000000000000           
    0.50000000000000    0.10000000000000    0.20000000000000           
   -0.40000000000000    0.10000000000000    0.20000000000000           
   -0.30000000000000    0.10000000000000    0.20000000000000           
   -0.20000000000000    0.10000000000000    0.20000000000000           
   -0.10000000000000    0.10000000000000    0.20000000000000           
    0.00000000000000    0.15000000000000    0.20000000000000           
    0.10000000000000    0.15000000000000    0.20000000000000           
    0.20000000000000    0.15000000000000    0.20000000000000           
    0.30000000000000    0.15000000000000    0.20000000000000           
    0.40000000000000    0.15000000000000    0.20000000000000           
    0.50000000000000    0.15000000000000    0.20000000000000           
   -0.40000000000000    0.15000000000000    0.20000000000000           
   -0.30000000000000    0.15000000000000    0.20000000000000           
   -0.20000000000000    0.15000000000000    0.20000000000000           
   -0.10000000000000    0.15000000000000    0.20000000000000           
    0.00000000000000    0.20000000000000    0.20000000000000           
    0.10000000000000    0.20000000000000    0.20000000000000           
    0.20000000000000    0.20000000000000    0.20000000000000           
    0.30000000000000    0.20000000000000    0.20000000000000           
    0.40000000000000    0.20000000000000    0.20000000000000           
    0.50000000000000    0.20000000000000    0.20000000000000           
   -0.40000000000000    0.20000000000000    0.20000000000000           
   -0.30000000000000    0.20000000000000    0.20000000000000           
   -0.20000000000000    0.20000000000000    0.20000000000000           
   -0.10000000000000    0.20000000000000    0.20000000000000           
    0.00000000000000    0.25000000000000    0.20000000000000           
    0.10000000000000    0.25000000000000    0.20000000000000           
    0.20000000000000    0.25000000000000    0.20000000000000           
    0.30000000000000    0.25000000000000    0.20000000000000           
    0.40000000000000    0.25000000000000    0.20000000000000           
    0.50000000000000    0.25000000000000    0.20000000000000           
   -0.40000000000000    0.25000000000000    0.20000000000000           
   -0.30000000000000    0.25000000000000    0.20000000000000           
   -0.20000000000000    0.25000000000000    0.20000000000000           
   -0.10000000000000    0.25000000000000    0.20000000000000           
    0.00000000000000    0.30000000000000    0.20000000000000           
    0.10000000000000    0.30000000000000    0.20000000000000           
    0.20000000000000    0.30000000000000    0.20000000000000           
    0.30000000000000    0.30000000000000    0.20000000000000           
    0.40000000000000    0.30000000000000    0.20000000000000           
    0.50000000000000    0.30000000000000    0.20000000000000           
   -0.40000000000000    0.30000000000000    0.20000000000000           
   -0.30000000000000    0.30000000000000    0.20000000000000           
   -0.20000000000000    0.30000000000000    0.20000000000000           
   -0.10000000000000    0.30000000000000    0.20000000000000           
    0.00000000000000    0.35000000000000    0.20000000000000           
    0.10000000000000    0.35000000000000    0.20000000000000           
    0.20000000000000    0.35000000000000    0.20000000000000           
    0.30000000000000    0.35000000000000    0.20000000000000           
    0.40000000000000    0.35000000000000    0.20000000000000           
    0.50000000000000    0.35000000000000    0.20000000000000           
   -0.40000000000000    0.35000000000000    0.20000000000000           
   -0.30000000000000    0.35000000000000    0.20000000000000           
   -0.20000000000000    0.35000000000000    0.20000000000000           
   -0.10000000000000    0.35000000000000    0.20000000000000           
    0.00000000000000    0.40000000000000    0.20000000000000           
    0.10000000000000    0.40000000000000    0.20000000000000           
    0.20000000000000    0.40000000000000    0.20000000000000           
    0.30000000000000    0.40000000000000    0.20000000000000           
    0.40000000000000    0.40000000000000    0.20000000000000           
    0.50000000000000    0.40000000000000    0.20000000000000           
   -0.40000000000000    0.40000000000000    0.20000000000000           
   -0.30000000000000    0.40000000000000    0.20000000000000           
   -0.20000000000000    0.40000000000000    0.20000000000000           
   -0.10000000000000    0.40000000000000    0.20000000000000           
    0.00000000000000    0.45000000000000    0.20000000000000           
    0.10000000000000    0.45000000000000    0.20000000000000           
    0.20000000000000    0.45000000000000    0.20000000000000           
    0.30000000000000    0.45000000000000    0.20000000000000           
    0.40000000000000    0.45000000000000    0.20000000000000           
    0.50000000000000    0.45000000000000    0.20000000000000           
   -0.40000000000000    0.45000000000000    0.20000000000000           
   -0.30000000000000    0.45000000000000    0.20000000000000           
   -0.20000000000000    0.45000000000000    0.20000000000000           
   -0.10000000000000    0.45000000000000    0.20000000000000           
    0.00000000000000    0.50000000000000    0.20000000000000           
    0.10000000000000    0.50000000000000    0.20000000000000           
    0.20000000000000    0.50000000000000    0.20000000000000           
    0.30000000000000    0.50000000000000    0.20000000000000           
    0.40000000000000    0.50000000000000    0.20000000000000           
    0.50000000000000    0.50000000000000    0.20000000000000           
   -0.40000000000000    0.50000000000000    0.20000000000000           
   -0.30000000000000    0.50000000000000    0.20000000000000           
   -0.20000000000000    0.50000000000000    0.20000000000000           
   -0.10000000000000    0.50000000000000    0.20000000000000           
    0.00000000000000   -0.45000000000000    0.20000000000000           
    0.10000000000000   -0.45000000000000    0.20000000000000           
    0.20000000000000   -0.45000000000000    0.20000000000000           
    0.30000000000000   -0.45000000000000    0.20000000000000           
    0.40000000000000   -0.45000000000000    0.20000000000000           
    0.50000000000000   -0.45000000000000    0.20000000000000           
   -0.40000000000000   -0.45000000000000    0.20000000000000           
   -0.30000000000000   -0.45000000000000    0.20000000000000           
   -0.20000000000000   -0.45000000000000    0.20000000000000           
   -0.10000000000000   -0.45000000000000    0.20000000000000           
    0.00000000000000   -0.40000000000000    0.20000000000000           
    0.10000000000000   -0.40000000000000    0.20000000000000           
    0.20000000000000   -0.40000000000000    0.20000000000000           
    0.30000000000000   -0.40000000000000    0.20000000000000           
    0.40000000000000   -0.40000000000000    0.20000000000000           
    0.50000000000000   -0.40000000000000    0.20000000000000           
   -0.40000000000000   -0.40000000000000    0.20000000000000           
   -0.30000000000000   -0.40000000000000    0.20000000000000           
   -0.20000000000000   -0.40000000000000    0.20000000000000           
   -0.10000000000000   -0.40000000000000    0.20000000000000           
    0.00000000000000   -0.35000000000000    0.20000000000000           
    0.10000000000000   -0.35000000000000    0.20000000000000           
    0.20000000000000   -0.35000000000000    0.20000000000000           
    0.30000000000000   -0.35000000000000    0.20000000000000           
    0.40000000000000   -0.35000000000000    0.20000000000000           
    0.50000000000000   -0.35000000000000    0.20000000000000           
   -0.40000000000000   -0.35000000000000    0.20000000000000           
   -0.30000000000000   -0.35000000000000    0.20000000000000           
   -0.20000000000000   -0.35000000000000    0.20000000000000           
   -0.10000000000000   -0.35000000000000    0.20000000000000           
    0.00000000000000   -0.30000000000000    0.20000000000000           
    0.10000000000000   -0.30000000000000    0.20000000000000           
    0.20000000000000   -0.30000000000000    0.20000000000000           
    0.30000000000000   -0.30000000000000    0.20000000000000           
    0.40000000000000   -0.30000000000000    0.20000000000000           
    0.50000000000000   -0.30000000000000    0.20000000000000           
   -0.40000000000000   -0.30000000000000    0.20000000000000           
   -0.30000000000000   -0.30000000000000    0.20000000000000           
   -0.20000000000000   -0.30000000000000    0.20000000000000           
   -0.10000000000000   -0.30000000000000    0.20000000000000           
    0.00000000000000   -0.25000000000000    0.20000000000000           
    0.10000000000000   -0.25000000000000    0.20000000000000           
    0.20000000000000   -0.25000000000000    0.20000000000000           
    0.30000000000000   -0.25000000000000    0.20000000000000           
    0.40000000000000   -0.25000000000000    0.20000000000000           
    0.50000000000000   -0.25000000000000    0.20000000000000           
   -0.40000000000000   -0.25000000000000    0.20000000000000           
   -0.30000000000000   -0.25000000000000    0.20000000000000           
   -0.20000000000000   -0.25000000000000    0.20000000000000           
   -0.10000000000000   -0.25000000000000    0.20000000000000           
    0.00000000000000   -0.20000000000000    0.20000000000000           
    0.10000000000000   -0.20000000000000    0.20000000000000           
    0.20000000000000   -0.20000000000000    0.20000000000000           
    0.30000000000000   -0.20000000000000    0.20000000000000           
    0.40000000000000   -0.20000000000000    0.20000000000000           
    0.50000000000000   -0.20000000000000    0.20000000000000           
   -0.40000000000000   -0.20000000000000    0.20000000000000           
   -0.30000000000000   -0.20000000000000    0.20000000000000           
   -0.20000000000000   -0.20000000000000    0.20000000000000           
   -0.10000000000000   -0.20000000000000    0.20000000000000           
    0.00000000000000   -0.15000000000000    0.20000000000000           
    0.10000000000000   -0.15000000000000    0.20000000000000           
    0.20000000000000   -0.15000000000000    0.20000000000000           
    0.30000000000000   -0.15000000000000    0.20000000000000           
    0.40000000000000   -0.15000000000000    0.20000000000000           
    0.50000000000000   -0.15000000000000    0.20000000000000           
   -0.40000000000000   -0.15000000000000    0.20000000000000           
   -0.30000000000000   -0.15000000000000    0.20000000000000           
   -0.20000000000000   -0.15000000000000    0.20000000000000           
   -0.10000000000000   -0.15000000000000    0.20000000000000           
    0.00000000000000   -0.10000000000000    0.20000000000000           
    0.10000000000000   -0.10000000000000    0.20000000000000           
    0.20000000000000   -0.10000000000000    0.20000000000000           
    0.30000000000000   -0.10000000000000    0.20000000000000           
    0.40000000000000   -0.10000000000000    0.20000000000000           
    0.50000000000000   -0.10000000000000    0.20000000000000           
   -0.40000000000000   -0.10000000000000    0.20000000000000           
   -0.30000000000000   -0.10000000000000    0.20000000000000           
   -0.20000000000000   -0.10000000000000    0.20000000000000           
   -0.10000000000000   -0.10000000000000    0.20000000000000           
    0.00000000000000   -0.05000000000000    0.20000000000000           
    0.10000000000000   -0.05000000000000    0.20000000000000           
    0.20000000000000   -0.05000000000000    0.20000000000000           
    0.30000000000000   -0.05000000000000    0.20000000000000           
    0.40000000000000   -0.05000000000000    0.20000000000000           
    0.50000000000000   -0.05000000000000    0.20000000000000           